
Gurobi 10.0.1 (linux64) logging started Sun Nov 26 18:03:23 2023

Set parameter LogFile to value "ArtificialInstance/ExperimentV2/S4T5K3/BaRo/gurobi91.txt"
Gurobi Optimizer version 10.0.1 build v10.0.1rc0 (linux64)

CPU model: AMD EPYC 7H12 64-Core Processor, instruction set [SSE2|AVX|AVX2]
Thread count: 128 physical cores, 128 logical processors, using up to 32 threads

Academic license 656792 - for non-commercial use only - registered to b.___@student.vu.nl
Optimize a model with 6624 rows, 10001 columns and 34884 nonzeros
Model fingerprint: 0x3b099de3
Variable types: 1 continuous, 10000 integer (10000 binary)
Coefficient statistics:
  Matrix range     [1e+00, 4e+01]
  Objective range  [1e+00, 2e+01]
  Bounds range     [1e+00, 1e+00]
  RHS range        [1e+00, 1e+00]
Found heuristic solution: objective 672.0012350
Presolve time: 0.05s
Presolved: 6624 rows, 10001 columns, 34884 nonzeros
Variable types: 1 continuous, 10000 integer (10000 binary)

Root relaxation: objective 5.382560e+01, 10378 iterations, 0.49 seconds (0.33 work units)

    Nodes    |    Current Node    |     Objective Bounds      |     Work
 Expl Unexpl |  Obj  Depth IntInf | Incumbent    BestBd   Gap | It/Node Time

     0     0   53.82560    0 1564  672.00123   53.82560  92.0%     -    0s
H    0     0                     438.8863550   53.82560  87.7%     -    0s
H    0     0                     369.0425753   53.82560  85.4%     -    1s
H    0     0                     127.9453392   53.82560  57.9%     -    1s
     0     0   63.17586    0 2282  127.94534   63.17586  50.6%     -    1s
H    0     0                     108.5533534   63.17586  41.8%     -    1s
H    0     0                      97.2029220   68.27806  29.8%     -    2s
     0     0   68.27806    0 2222   97.20292   68.27806  29.8%     -    2s
     0     0   68.65544    0 2142   97.20292   68.65544  29.4%     -    2s
     0     0   68.65544    0 2144   97.20292   68.65544  29.4%     -    2s
     0     0   72.09918    0 2135   97.20292   72.09918  25.8%     -    3s
H    0     0                      90.2802495   72.09918  20.1%     -    3s
     0     0   72.31762    0 1919   90.28025   72.31762  19.9%     -    3s
     0     0   72.37567    0 1900   90.28025   72.37567  19.8%     -    4s
     0     0   72.37567    0 1900   90.28025   72.37567  19.8%     -    4s
     0     0   72.48591    0 1811   90.28025   72.48591  19.7%     -    4s
     0     0   72.52700    0 2025   90.28025   72.52700  19.7%     -    4s
     0     0   72.52937    0 1953   90.28025   72.52937  19.7%     -    4s
     0     0   72.63760    0 1968   90.28025   72.63760  19.5%     -    4s
     0     0   72.68163    0 1968   90.28025   72.68163  19.5%     -    4s
     0     0   72.68380    0 1972   90.28025   72.68380  19.5%     -    5s
     0     0   73.03446    0 2065   90.28025   73.03446  19.1%     -    5s
     0     0   73.14084    0 2142   90.28025   73.14084  19.0%     -    5s
     0     0   73.14341    0 2129   90.28025   73.14341  19.0%     -    5s
     0     0   73.56176    0 1879   90.28025   73.56176  18.5%     -    5s
     0     0   73.67500    0 2072   90.28025   73.67500  18.4%     -    6s
     0     0   73.68806    0 1915   90.28025   73.68806  18.4%     -    6s
     0     0   73.69270    0 1912   90.28025   73.69270  18.4%     -    6s
     0     0   74.10180    0 2094   90.28025   74.10180  17.9%     -    6s
     0     0   74.16351    0 2125   90.28025   74.16351  17.9%     -    6s
     0     0   74.16428    0 2120   90.28025   74.16428  17.9%     -    6s
     0     0   74.19928    0 2075   90.28025   74.19928  17.8%     -    7s
     0     0   74.20129    0 2071   90.28025   74.20129  17.8%     -    7s
     0     0   74.20129    0 2049   90.28025   74.20129  17.8%     -    7s
     0     0   74.20129    0 1814   90.28025   74.20129  17.8%     -    7s
     0     2   74.20129    0 1814   90.28025   74.20129  17.8%     -   10s
   127   145   78.77211    7 1806   90.28025   77.44061  14.2%  1849   15s
H  193   205                      89.0841454   77.72316  12.8%  1648   16s
   532   359   82.92457   13 1258   89.08415   77.72316  12.8%  1132   20s
   910   482   86.07277   18 1420   89.08415   77.72316  12.8%  1000   26s
* 1011   511              33      88.1199251   77.72316  11.8%   978   27s
H 1240   527                      87.4891455   78.63298  10.1%   922   28s
  1539   568   85.88526   12 1262   87.48915   78.63298  10.1%   888   30s
* 1555   568              29      87.1059277   78.63298  9.73%   884   30s
  2527   485   85.68472    9 1820   87.10593   80.81048  7.23%   822   36s
  3340    37     cutoff   11        87.10593   84.77283  2.68%   768   44s
  3576     0   85.86793   14 1569   87.10593   85.48358  1.86%   734   45s

Cutting planes:
  Gomory: 5
  Zero half: 578
  RLT: 360

Explored 3637 nodes (2684973 simplex iterations) in 45.33 seconds (48.79 work units)
Thread count was 32 (of 128 available processors)

Solution count 10: 87.1059 87.4891 88.1199 ... 438.886

Optimal solution found (tolerance 1.00e-04)
Best objective 8.710592771568e+01, best bound 8.710592771568e+01, gap 0.0000%
